
Gurobi 9.1.2 (linux64, Java) logging started lun 12 jun 2023 11:59:35


Gurobi 9.1.2 (linux64, Java) logging started lun 12 jun 2023 11:59:35


Gurobi 9.1.2 (linux64, Java) logging started lun 12 jun 2023 11:59:35


Gurobi 9.1.2 (linux64, Java) logging started lun 12 jun 2023 11:59:35


Gurobi 9.1.2 (linux64, Java) logging started lun 12 jun 2023 11:59:35


Gurobi 9.1.2 (linux64, Java) logging started lun 12 jun 2023 11:59:35


Gurobi 9.1.2 (linux64, Java) logging started lun 12 jun 2023 11:59:35


Gurobi 9.1.2 (linux64, Java) logging started lun 12 jun 2023 11:59:35


Gurobi 9.1.2 (linux64, Java) logging started lun 12 jun 2023 11:59:35


Gurobi 9.1.2 (linux64, Java) logging started lun 12 jun 2023 11:59:35


Gurobi 9.1.2 (linux64, Java) logging started lun 12 jun 2023 12:00:40


Gurobi 9.1.2 (linux64, Java) logging started lun 12 jun 2023 12:00:40


Gurobi 9.1.2 (linux64, Java) logging started lun 12 jun 2023 12:00:51


Gurobi 9.1.2 (linux64, Java) logging started lun 12 jun 2023 12:00:51


Gurobi 9.1.2 (linux64, Java) logging started lun 12 jun 2023 12:01:03


Gurobi 9.1.2 (linux64, Java) logging started lun 12 jun 2023 12:01:03


Gurobi 9.1.2 (linux64, Java) logging started lun 12 jun 2023 12:01:14


Gurobi 9.1.2 (linux64, Java) logging started lun 12 jun 2023 12:01:14


Gurobi 9.1.2 (linux64, Java) logging started lun 12 jun 2023 12:01:25


Gurobi 9.1.2 (linux64, Java) logging started lun 12 jun 2023 12:01:25


Gurobi 9.1.2 (linux64, Java) logging started lun 12 jun 2023 12:01:36


Gurobi 9.1.2 (linux64, Java) logging started lun 12 jun 2023 12:01:36


Gurobi 9.1.2 (linux64, Java) logging started lun 12 jun 2023 12:01:48


Gurobi 9.1.2 (linux64, Java) logging started lun 12 jun 2023 12:01:48


Gurobi 9.1.2 (linux64, Java) logging started lun 12 jun 2023 12:02:01


Gurobi 9.1.2 (linux64, Java) logging started lun 12 jun 2023 12:02:01


Gurobi 9.1.2 (linux64, Java) logging started lun 12 jun 2023 12:02:13


Gurobi 9.1.2 (linux64, Java) logging started lun 12 jun 2023 12:02:13


Gurobi 9.1.2 (linux64, Java) logging started lun 12 jun 2023 12:02:28


Gurobi 9.1.2 (linux64, Java) logging started lun 12 jun 2023 12:02:28


Gurobi 9.1.2 (linux64, Java) logging started lun 12 jun 2023 12:02:42


Gurobi 9.1.2 (linux64, Java) logging started lun 12 jun 2023 12:02:42


Gurobi 9.1.2 (linux64, Java) logging started lun 12 jun 2023 12:02:55


Gurobi 9.1.2 (linux64, Java) logging started lun 12 jun 2023 12:02:56


Gurobi 9.1.2 (linux64, Java) logging started lun 12 jun 2023 12:03:10


Gurobi 9.1.2 (linux64, Java) logging started lun 12 jun 2023 12:03:10


Gurobi 9.1.2 (linux64, Java) logging started lun 12 jun 2023 12:03:23


Gurobi 9.1.2 (linux64, Java) logging started lun 12 jun 2023 12:03:23


Gurobi 9.1.2 (linux64, Java) logging started lun 12 jun 2023 12:03:42


Gurobi 9.1.2 (linux64, Java) logging started lun 12 jun 2023 12:03:42


Gurobi 9.1.2 (linux64, Java) logging started lun 12 jun 2023 12:04:07


Gurobi 9.1.2 (linux64, Java) logging started lun 12 jun 2023 12:04:07


Gurobi 9.1.2 (linux64, Java) logging started lun 12 jun 2023 12:04:32


Gurobi 9.1.2 (linux64, Java) logging started lun 12 jun 2023 12:04:32


Gurobi 9.1.2 (linux64, Java) logging started lun 12 jun 2023 12:05:05


Gurobi 9.1.2 (linux64, Java) logging started lun 12 jun 2023 12:05:06


Gurobi 9.1.2 (linux64, Java) logging started lun 12 jun 2023 12:05:33


Gurobi 9.1.2 (linux64, Java) logging started lun 12 jun 2023 12:05:34


Gurobi 9.1.2 (linux64, Java) logging started lun 12 jun 2023 12:05:59


Gurobi 9.1.2 (linux64, Java) logging started lun 12 jun 2023 12:06:00


Gurobi 9.1.2 (linux64, Java) logging started lun 12 jun 2023 12:06:23


Gurobi 9.1.2 (linux64, Java) logging started lun 12 jun 2023 12:06:23


Gurobi 9.1.2 (linux64, Java) logging started lun 12 jun 2023 12:06:47


Gurobi 9.1.2 (linux64, Java) logging started lun 12 jun 2023 12:06:48


Gurobi 9.1.2 (linux64, Java) logging started lun 12 jun 2023 12:07:09


Gurobi 9.1.2 (linux64, Java) logging started lun 12 jun 2023 12:07:10


Gurobi 9.1.2 (linux64, Java) logging started lun 12 jun 2023 12:07:31


Gurobi 9.1.2 (linux64, Java) logging started lun 12 jun 2023 12:07:31


Gurobi 9.1.2 (linux64, Java) logging started lun 12 jun 2023 12:07:52


Gurobi 9.1.2 (linux64, Java) logging started lun 12 jun 2023 12:07:52


Gurobi 9.1.2 (linux64, Java) logging started lun 12 jun 2023 12:08:22


Gurobi 9.1.2 (linux64, Java) logging started lun 12 jun 2023 12:08:22


Gurobi 9.1.2 (linux64, Java) logging started lun 12 jun 2023 12:08:44


Gurobi 9.1.2 (linux64, Java) logging started lun 12 jun 2023 12:08:44


Gurobi 9.1.2 (linux64, Java) logging started lun 12 jun 2023 12:09:06


Gurobi 9.1.2 (linux64, Java) logging started lun 12 jun 2023 12:09:06


Gurobi 9.1.2 (linux64, Java) logging started lun 12 jun 2023 12:09:16


Gurobi 9.1.2 (linux64, Java) logging started lun 12 jun 2023 12:09:16


Gurobi 9.1.2 (linux64, Java) logging started lun 12 jun 2023 12:09:20


Gurobi 9.1.2 (linux64, Java) logging started lun 12 jun 2023 12:09:21


Gurobi 9.1.2 (linux64, Java) logging started lun 12 jun 2023 12:09:25


Gurobi 9.1.2 (linux64, Java) logging started lun 12 jun 2023 12:09:25


Gurobi 9.1.2 (linux64, Java) logging started lun 12 jun 2023 12:09:30


Gurobi 9.1.2 (linux64, Java) logging started lun 12 jun 2023 12:09:30


Gurobi 9.1.2 (linux64, Java) logging started lun 12 jun 2023 12:09:35


Gurobi 9.1.2 (linux64, Java) logging started lun 12 jun 2023 12:09:35


Gurobi 9.1.2 (linux64, Java) logging started lun 12 jun 2023 12:09:40


Gurobi 9.1.2 (linux64, Java) logging started lun 12 jun 2023 12:09:40


Gurobi 9.1.2 (linux64, Java) logging started lun 12 jun 2023 12:09:44


Gurobi 9.1.2 (linux64, Java) logging started lun 12 jun 2023 12:09:44


Gurobi 9.1.2 (linux64, Java) logging started lun 12 jun 2023 12:09:48


Gurobi 9.1.2 (linux64, Java) logging started lun 12 jun 2023 12:09:48


Gurobi 9.1.2 (linux64, Java) logging started lun 12 jun 2023 12:09:53


Gurobi 9.1.2 (linux64, Java) logging started lun 12 jun 2023 12:09:53


Gurobi 9.1.2 (linux64, Java) logging started lun 12 jun 2023 12:09:57


Gurobi 9.1.2 (linux64, Java) logging started lun 12 jun 2023 12:09:57


Gurobi 9.1.2 (linux64, Java) logging started lun 12 jun 2023 12:10:03


Gurobi 9.1.2 (linux64, Java) logging started lun 12 jun 2023 12:10:03


Gurobi 9.1.2 (linux64, Java) logging started lun 12 jun 2023 12:10:08


Gurobi 9.1.2 (linux64, Java) logging started lun 12 jun 2023 12:10:08


Gurobi 9.1.2 (linux64, Java) logging started lun 12 jun 2023 12:10:13


Gurobi 9.1.2 (linux64, Java) logging started lun 12 jun 2023 12:10:13


Gurobi 9.1.2 (linux64, Java) logging started lun 12 jun 2023 12:10:20


Gurobi 9.1.2 (linux64, Java) logging started lun 12 jun 2023 12:10:20


Gurobi 9.1.2 (linux64, Java) logging started lun 12 jun 2023 12:10:30


Gurobi 9.1.2 (linux64, Java) logging started lun 12 jun 2023 12:10:30


Gurobi 9.1.2 (linux64, Java) logging started lun 12 jun 2023 12:10:39


Gurobi 9.1.2 (linux64, Java) logging started lun 12 jun 2023 12:10:39


Gurobi 9.1.2 (linux64, Java) logging started lun 12 jun 2023 12:10:46


Gurobi 9.1.2 (linux64, Java) logging started lun 12 jun 2023 12:10:46


Gurobi 9.1.2 (linux64, Java) logging started lun 12 jun 2023 12:10:53


Gurobi 9.1.2 (linux64, Java) logging started lun 12 jun 2023 12:10:53


Gurobi 9.1.2 (linux64, Java) logging started lun 12 jun 2023 12:10:59


Gurobi 9.1.2 (linux64, Java) logging started lun 12 jun 2023 12:10:59


Gurobi 9.1.2 (linux64, Java) logging started lun 12 jun 2023 12:11:05


Gurobi 9.1.2 (linux64, Java) logging started lun 12 jun 2023 12:11:05


Gurobi 9.1.2 (linux64, Java) logging started lun 12 jun 2023 12:11:11


Gurobi 9.1.2 (linux64, Java) logging started lun 12 jun 2023 12:11:11


Gurobi 9.1.2 (linux64, Java) logging started lun 12 jun 2023 12:11:16


Gurobi 9.1.2 (linux64, Java) logging started lun 12 jun 2023 12:11:17


Gurobi 9.1.2 (linux64, Java) logging started lun 12 jun 2023 12:11:23


Gurobi 9.1.2 (linux64, Java) logging started lun 12 jun 2023 12:11:23


Gurobi 9.1.2 (linux64, Java) logging started lun 12 jun 2023 12:11:29


Gurobi 9.1.2 (linux64, Java) logging started lun 12 jun 2023 12:11:29


Gurobi 9.1.2 (linux64, Java) logging started lun 12 jun 2023 12:11:35


Gurobi 9.1.2 (linux64, Java) logging started lun 12 jun 2023 12:11:35


Gurobi 9.1.2 (linux64, Java) logging started lun 12 jun 2023 12:11:41


Gurobi 9.1.2 (linux64, Java) logging started lun 12 jun 2023 12:11:41


Gurobi 9.1.2 (linux64, Java) logging started lun 12 jun 2023 12:11:49


Gurobi 9.1.2 (linux64, Java) logging started lun 12 jun 2023 12:11:49


Gurobi 9.1.2 (linux64, Java) logging started lun 12 jun 2023 12:11:57


Gurobi 9.1.2 (linux64, Java) logging started lun 12 jun 2023 12:11:58


Gurobi 9.1.2 (linux64, Java) logging started lun 12 jun 2023 12:12:08


Gurobi 9.1.2 (linux64, Java) logging started lun 12 jun 2023 12:12:08


Gurobi 9.1.2 (linux64, Java) logging started lun 12 jun 2023 12:12:19


Gurobi 9.1.2 (linux64, Java) logging started lun 12 jun 2023 12:12:19


Gurobi 9.1.2 (linux64, Java) logging started lun 12 jun 2023 12:12:30


Gurobi 9.1.2 (linux64, Java) logging started lun 12 jun 2023 12:12:30


Gurobi 9.1.2 (linux64, Java) logging started lun 12 jun 2023 12:12:41


Gurobi 9.1.2 (linux64, Java) logging started lun 12 jun 2023 12:12:41


Gurobi 9.1.2 (linux64, Java) logging started lun 12 jun 2023 12:12:52


Gurobi 9.1.2 (linux64, Java) logging started lun 12 jun 2023 12:12:52


Gurobi 9.1.2 (linux64, Java) logging started lun 12 jun 2023 12:13:02


Gurobi 9.1.2 (linux64, Java) logging started lun 12 jun 2023 12:13:02


Gurobi 9.1.2 (linux64, Java) logging started lun 12 jun 2023 12:13:13


Gurobi 9.1.2 (linux64, Java) logging started lun 12 jun 2023 12:13:13


Gurobi 9.1.2 (linux64, Java) logging started lun 12 jun 2023 12:13:23


Gurobi 9.1.2 (linux64, Java) logging started lun 12 jun 2023 12:13:23


Gurobi 9.1.2 (linux64, Java) logging started lun 12 jun 2023 12:13:32


Gurobi 9.1.2 (linux64, Java) logging started lun 12 jun 2023 12:13:33


Gurobi 9.1.2 (linux64, Java) logging started lun 12 jun 2023 12:13:44


Gurobi 9.1.2 (linux64, Java) logging started lun 12 jun 2023 12:13:44


Gurobi 9.1.2 (linux64, Java) logging started lun 12 jun 2023 12:13:53


Gurobi 9.1.2 (linux64, Java) logging started lun 12 jun 2023 12:13:53


Gurobi 9.1.2 (linux64, Java) logging started lun 12 jun 2023 12:14:03


Gurobi 9.1.2 (linux64, Java) logging started lun 12 jun 2023 12:14:03


Gurobi 9.1.2 (linux64, Java) logging started lun 12 jun 2023 12:14:14


Gurobi 9.1.2 (linux64, Java) logging started lun 12 jun 2023 12:14:14


Gurobi 9.1.2 (linux64, Java) logging started lun 12 jun 2023 12:14:26


Gurobi 9.1.2 (linux64, Java) logging started lun 12 jun 2023 12:14:26


Gurobi 9.1.2 (linux64, Java) logging started lun 12 jun 2023 12:17:42


Gurobi 9.1.2 (linux64, Java) logging started lun 12 jun 2023 12:17:42


Gurobi 9.1.2 (linux64, Java) logging started lun 12 jun 2023 12:17:42


Gurobi 9.1.2 (linux64, Java) logging started lun 12 jun 2023 12:17:42


Gurobi 9.1.2 (linux64, Java) logging started lun 12 jun 2023 12:17:43


Gurobi 9.1.2 (linux64, Java) logging started lun 12 jun 2023 12:17:43


Gurobi 9.1.2 (linux64, Java) logging started lun 12 jun 2023 12:17:43


Gurobi 9.1.2 (linux64, Java) logging started lun 12 jun 2023 12:17:43


Gurobi 9.1.2 (linux64, Java) logging started lun 12 jun 2023 12:17:43


Gurobi 9.1.2 (linux64, Java) logging started lun 12 jun 2023 12:17:43


Gurobi 9.1.2 (linux64, Java) logging started lun 12 jun 2023 12:27:17


Gurobi 9.1.2 (linux64, Java) logging started lun 12 jun 2023 12:27:17


Gurobi 9.1.2 (linux64, Java) logging started lun 12 jun 2023 12:27:17


Gurobi 9.1.2 (linux64, Java) logging started lun 12 jun 2023 12:27:17


Gurobi 9.1.2 (linux64, Java) logging started lun 12 jun 2023 12:27:17


Gurobi 9.1.2 (linux64, Java) logging started lun 12 jun 2023 12:27:17


Gurobi 9.1.2 (linux64, Java) logging started lun 12 jun 2023 12:27:17


Gurobi 9.1.2 (linux64, Java) logging started lun 12 jun 2023 12:27:17


Gurobi 9.1.2 (linux64, Java) logging started lun 12 jun 2023 12:27:17


Gurobi 9.1.2 (linux64, Java) logging started lun 12 jun 2023 12:27:17

